v1 = 5;
v2 = 5;
vertexWeights = [-45, -45, -45, -45, -45, -45, -90, -31.38470965295043, -90, -90, -90, -45, -90, -90, -90, -90, -90, -45, -90, -90, -54.60082416960389, -90, -90, -45, -90, -49.64876634922564, -90, -90, -90, -45, -90, -90, -25.71478174124758, -90, -90];
edgeWeights = [| 0, 0, -7.5, -7.5, -7.5, 0, 0, 0, -7.5, -7.5, -7.5, 0, 0, 0, -7.5, -7.5, -7.5, 0, 0, 0, -7.5, -7.5, -7.5, 0, 0, 0, -7.5, -7.5, -7.5, 0, 0, 0, -7.5, -7.5, -7.5
| 0, 0, -7.5, -7.5, 0, 0, 0, 0, -7.5, -7.5, 0, 0, 0, 0, -7.5, -7.5, 0, 0, 0, 0, -7.5, -7.5, 0, 0, 0, 0, -7.5, -7.5, 0, 0, 0, 0, -7.5, -7.5, 0
| -7.5, -7.5, 0, 0, 0, 0, -7.5, -7.5, 0, 0, 0, 0, -7.5, -7.5, 0, 0, 0, 0, -7.5, -7.5, 0, 0, 0, 0, -7.5, -7.5, 0, 0, 0, 0, -7.5, -7.5, 0, 0, 0
| -7.5, -7.5, 0, 0, 0, 0, -7.5, -7.5, 0, 0, 0, 0, -7.5, -7.5, 0, 0, 0, 0, -7.5, -7.5, 0, 0, 0, 0, -7.5, -7.5, 0, 0, 0, 0, -7.5, -7.5, 0, 0, 0
| -7.5, 0, 0, 0, 0, 0, -7.5, 0, 0, 0, 0, 0, -7.5, 0, 0, 0, 0, 0, -7.5, 0, 0, 0, 0, 0, -7.5, 0, 0, 0, 0, 0, -7.5, 0, 0, 0, 0
| 0, 0, 0, 0, 0, 0, 0, 0, 0, 0, 0, 0, 0, 0, 0, 0, 0, 0, 0, 0, 0, 0, 0, 0, 0, 0, 0, 0, 0, -15.0, -15.0, -15.0, -15.0, -15.0, -15.0
| 0, -0.0, -7.5, -7.5, -7.5, 0, 0, 0, 0, 0, 0, -0.0, 0, 0, -7.5, -7.5, -7.5, -0.0, 0, 0, -7.5, -7.5, -7.5, -0.0, 0, 0, -7.5, -7.5, -7.5, -15.0, 0, -0.0, -7.5, -7.5, -7.5
| -0.0, 0, -7.5, -7.5, -0.0, 0, 0, 0, 0, 0, 0, -0.0, 0, 0, -7.5, -7.5, 0, -0.0, 0, 0, -7.5, -7.5, 0, -0.0, 0, 0, -7.5, -7.5, 0, -15.0, -0.0, 0, -7.5, -7.5, -15.0
| -7.5, -7.5, 0, -0.0, -0.0, 0, 0, 0, 0, 0, 0, -0.0, -7.5, -7.5, 0, 0, 0, -0.0, -7.5, -7.5, 0, 0, 0, -0.0, -7.5, -7.5, 0, 0, 0, -15.0, -7.5, -7.5, 0, -0.0, -15.0
| -7.5, -7.5, -0.0, 0, -0.0, 0, 0, 0, 0, 0, 0, -0.0, -7.5, -7.5, 0, 0, 0, -0.0, -7.5, -7.5, 0, 0, 0, -0.0, -7.5, -7.5, 0, 0, 0, -15.0, -7.5, -7.5, -0.0, 0, -15.0
| -7.5, -0.0, -0.0, -0.0, 0, 0, 0, 0, 0, 0, 0, -0.0, -7.5, 0, 0, 0, 0, -0.0, -7.5, 0, 0, 0, 0, -0.0, -7.5, 0, 0, 0, 0, -15.0, -7.5, -0.0, -0.0, -0.0, 0
| 0, 0, 0, 0, 0, 0, 0, 0, 0, 0, 0, 0, 0, 0, 0, 0, 0, 0, 0, 0, 0, 0, 0, 0, 0, 0, 0, 0, 0, 0, 0, 0, 0, 0, 0
| 0, -0.0, -7.5, -7.5, -7.5, -0.0, 0, 0, -7.5, -7.5, -7.5, 0, 0, 0, 0, 0, 0, -0.0, 0, 0, -7.5, -7.5, -7.5, -0.0, 0, 0, -7.5, -7.5, -7.5, -0.0, 0, 0, -7.5, -7.5, -7.5
| -0.0, 0, -7.5, -7.5, -0.0, -0.0, 0, 0, -7.5, -7.5, 0, 0, 0, 0, 0, 0, 0, -0.0, 0, 0, -7.5, -7.5, 0, -0.0, 0, 0, -7.5, -7.5, 0, -0.0, 0, 0, -7.5, -7.5, 0
| -7.5, -7.5, 0, -0.0, -0.0, -0.0, -7.5, -7.5, 0, 0, 0, 0, 0, 0, 0, 0, 0, -0.0, -7.5, -7.5, 0, 0, 0, -0.0, -7.5, -7.5, 0, 0, 0, -0.0, -7.5, -7.5, 0, 0, 0
| -7.5, -7.5, -0.0, 0, -0.0, -0.0, -7.5, -7.5, 0, 0, 0, 0, 0, 0, 0, 0, 0, -0.0, -7.5, -7.5, 0, 0, 0, -0.0, -7.5, -7.5, 0, 0, 0, -0.0, -7.5, -7.5, 0, 0, 0
| -7.5, -0.0, -0.0, -0.0, 0, -0.0, -7.5, 0, 0, 0, 0, 0, 0, 0, 0, 0, 0, -0.0, -7.5, 0, 0, 0, 0, -0.0, -7.5, 0, 0, 0, 0, -0.0, -7.5, 0, 0, 0, 0
| 0, 0, 0, 0, 0, 0, 0, 0, 0, 0, 0, 0, 0, 0, 0, 0, 0, 0, 0, 0, 0, 0, 0, -15.0, -15.0, -15.0, -15.0, -15.0, -15.0, 0, 0, 0, 0, 0, 0
| 0, -0.0, -7.5, -7.5, -7.5, -0.0, 0, 0, -7.5, -7.5, -7.5, -0.0, 0, 0, -7.5, -7.5, -7.5, 0, 0, 0, 0, 0, 0, -15.0, 0, -0.0, -7.5, -7.5, -7.5, -0.0, 0, 0, -7.5, -7.5, -7.5
| -0.0, 0, -7.5, -7.5, -0.0, -0.0, 0, 0, -7.5, -7.5, 0, -0.0, 0, 0, -7.5, -7.5, 0, 0, 0, 0, 0, 0, 0, -15.0, -0.0, 0, -7.5, -7.5, -0.0, -0.0, 0, 0, -7.5, -7.5, 0
| -7.5, -7.5, 0, -0.0, -0.0, -0.0, -7.5, -7.5, 0, 0, 0, -0.0, -7.5, -7.5, 0, 0, 0, 0, 0, 0, 0, 0, 0, -15.0, -7.5, -7.5, 0, -15.0, -0.0, -0.0, -7.5, -7.5, 0, 0, 0
| -7.5, -7.5, -0.0, 0, -0.0, -0.0, -7.5, -7.5, 0, 0, 0, -0.0, -7.5, -7.5, 0, 0, 0, 0, 0, 0, 0, 0, 0, -15.0, -7.5, -7.5, -0.0, 0, -0.0, -0.0, -7.5, -7.5, 0, 0, 0
| -7.5, -0.0, -0.0, -0.0, 0, -0.0, -7.5, 0, 0, 0, 0, -0.0, -7.5, 0, 0, 0, 0, 0, 0, 0, 0, 0, 0, -15.0, -7.5, -0.0, -0.0, -15.0, 0, -0.0, -7.5, 0, 0, 0, 0
| 0, 0, 0, 0, 0, 0, 0, 0, 0, 0, 0, 0, 0, 0, 0, 0, 0, -15.0, -15.0, -15.0, -15.0, -15.0, -15.0, 0, 0, 0, 0, 0, 0, 0, 0, 0, 0, 0, 0
| 0, -0.0, -7.5, -7.5, -7.5, -0.0, 0, 0, -7.5, -7.5, -7.5, -0.0, 0, 0, -7.5, -7.5, -7.5, -15.0, 0, -0.0, -7.5, -7.5, -7.5, 0, 0, 0, 0, 0, 0, -0.0, 0, 0, -7.5, -7.5, -7.5
| -0.0, 0, -7.5, -7.5, -0.0, -0.0, 0, 0, -7.5, -7.5, 0, -0.0, 0, 0, -7.5, -7.5, 0, -15.0, -0.0, 0, -7.5, -7.5, -0.0, 0, 0, 0, 0, 0, 0, -0.0, 0, 0, -7.5, -7.5, 0
| -7.5, -7.5, 0, -0.0, -0.0, -0.0, -7.5, -7.5, 0, 0, 0, -0.0, -7.5, -7.5, 0, 0, 0, -15.0, -7.5, -7.5, 0, -0.0, -0.0, 0, 0, 0, 0, 0, 0, -0.0, -7.5, -7.5, 0, 0, 0
| -7.5, -7.5, -0.0, 0, -0.0, -0.0, -7.5, -7.5, 0, 0, 0, -0.0, -7.5, -7.5, 0, 0, 0, -15.0, -7.5, -7.5, -15.0, 0, -0.0, 0, 0, 0, 0, 0, 0, -0.0, -7.5, -7.5, 0, 0, 0
| -7.5, -0.0, -0.0, -0.0, 0, -0.0, -7.5, 0, 0, 0, 0, -0.0, -7.5, 0, 0, 0, 0, -15.0, -7.5, -0.0, -15.0, -0.0, 0, 0, 0, 0, 0, 0, 0, -0.0, -7.5, 0, 0, 0, 0
| 0, 0, 0, 0, 0, -15.0, -15.0, -15.0, -15.0, -15.0, -15.0, 0, 0, 0, 0, 0, 0, 0, 0, 0, 0, 0, 0, 0, 0, 0, 0, 0, 0, 0, 0, 0, 0, 0, 0
| 0, -0.0, -7.5, -7.5, -7.5, -15.0, 0, -0.0, -7.5, -7.5, -7.5, -0.0, 0, 0, -7.5, -7.5, -7.5, -0.0, 0, 0, -7.5, -7.5, -7.5, -0.0, 0, 0, -7.5, -7.5, -7.5, 0, 0, 0, 0, 0, 0
| -0.0, 0, -7.5, -7.5, -0.0, -15.0, -15.0, 0, -7.5, -7.5, -0.0, -0.0, 0, 0, -7.5, -7.5, 0, -0.0, 0, 0, -7.5, -7.5, 0, -0.0, 0, 0, -7.5, -7.5, 0, 0, 0, 0, 0, 0, 0
| -7.5, -7.5, 0, -0.0, -0.0, -15.0, -7.5, -7.5, 0, -0.0, -0.0, -0.0, -7.5, -7.5, 0, 0, 0, -0.0, -7.5, -7.5, 0, 0, 0, -0.0, -7.5, -7.5, 0, 0, 0, 0, 0, 0, 0, 0, 0
| -7.5, -7.5, -0.0, 0, -0.0, -15.0, -7.5, -7.5, -0.0, 0, -0.0, -0.0, -7.5, -7.5, 0, 0, 0, -0.0, -7.5, -7.5, 0, 0, 0, -0.0, -7.5, -7.5, 0, 0, 0, 0, 0, 0, 0, 0, 0
| -7.5, -0.0, -0.0, -0.0, 0, -15.0, -7.5, -0.0, -0.0, -0.0, 0, -0.0, -7.5, 0, 0, 0, 0, -0.0, -7.5, 0, 0, 0, 0, -0.0, -7.5, 0, 0, 0, 0, 0, 0, 0, 0, 0, 0 |];
adjacent = [| 0, 1, 1, 1, 1, 1, 0, 1, 1, 1, 1, 1, 0, 1, 1, 1, 1, 1, 0, 1, 1, 1, 1, 1, 0, 1, 1, 1, 1, 1, 0, 1, 1, 1, 1
| 1, 0, 1, 1, 1, 1, 1, 0, 1, 1, 1, 1, 1, 0, 1, 1, 1, 1, 1, 0, 1, 1, 1, 1, 1, 0, 1, 1, 1, 1, 1, 0, 1, 1, 1
| 1, 1, 0, 1, 1, 1, 1, 1, 0, 1, 1, 1, 1, 1, 0, 1, 1, 1, 1, 1, 0, 1, 1, 1, 1, 1, 0, 1, 1, 1, 1, 1, 0, 1, 1
| 1, 1, 1, 0, 1, 1, 1, 1, 1, 0, 1, 1, 1, 1, 1, 0, 1, 1, 1, 1, 1, 0, 1, 1, 1, 1, 1, 0, 1, 1, 1, 1, 1, 0, 1
| 1, 1, 1, 1, 0, 1, 1, 1, 1, 1, 0, 1, 1, 1, 1, 1, 0, 1, 1, 1, 1, 1, 0, 1, 1, 1, 1, 1, 0, 1, 1, 1, 1, 1, 0
| 1, 1, 1, 1, 1, 0, 0, 0, 0, 0, 0, 1, 1, 1, 1, 1, 1, 1, 1, 1, 1, 1, 1, 1, 1, 1, 1, 1, 1, 1, 1, 1, 1, 1, 1
| 0, 1, 1, 1, 1, 0, 0, 0, 0, 0, 0, 1, 0, 1, 1, 1, 1, 1, 0, 1, 1, 1, 1, 1, 0, 1, 1, 1, 1, 1, 0, 1, 1, 1, 1
| 1, 0, 1, 1, 1, 0, 0, 0, 0, 0, 0, 1, 1, 0, 1, 1, 1, 1, 1, 0, 1, 1, 1, 1, 1, 0, 1, 1, 1, 1, 1, 0, 1, 1, 1
| 1, 1, 0, 1, 1, 0, 0, 0, 0, 0, 0, 1, 1, 1, 0, 1, 1, 1, 1, 1, 0, 1, 1, 1, 1, 1, 0, 1, 1, 1, 1, 1, 0, 1, 1
| 1, 1, 1, 0, 1, 0, 0, 0, 0, 0, 0, 1, 1, 1, 1, 0, 1, 1, 1, 1, 1, 0, 1, 1, 1, 1, 1, 0, 1, 1, 1, 1, 1, 0, 1
| 1, 1, 1, 1, 0, 0, 0, 0, 0, 0, 0, 1, 1, 1, 1, 1, 0, 1, 1, 1, 1, 1, 0, 1, 1, 1, 1, 1, 0, 1, 1, 1, 1, 1, 0
| 1, 1, 1, 1, 1, 1, 1, 1, 1, 1, 1, 0, 0, 0, 0, 0, 0, 1, 1, 1, 1, 1, 1, 1, 1, 1, 1, 1, 1, 1, 1, 1, 1, 1, 1
| 0, 1, 1, 1, 1, 1, 0, 1, 1, 1, 1, 0, 0, 0, 0, 0, 0, 1, 0, 1, 1, 1, 1, 1, 0, 1, 1, 1, 1, 1, 0, 1, 1, 1, 1
| 1, 0, 1, 1, 1, 1, 1, 0, 1, 1, 1, 0, 0, 0, 0, 0, 0, 1, 1, 0, 1, 1, 1, 1, 1, 0, 1, 1, 1, 1, 1, 0, 1, 1, 1
| 1, 1, 0, 1, 1, 1, 1, 1, 0, 1, 1, 0, 0, 0, 0, 0, 0, 1, 1, 1, 0, 1, 1, 1, 1, 1, 0, 1, 1, 1, 1, 1, 0, 1, 1
| 1, 1, 1, 0, 1, 1, 1, 1, 1, 0, 1, 0, 0, 0, 0, 0, 0, 1, 1, 1, 1, 0, 1, 1, 1, 1, 1, 0, 1, 1, 1, 1, 1, 0, 1
| 1, 1, 1, 1, 0, 1, 1, 1, 1, 1, 0, 0, 0, 0, 0, 0, 0, 1, 1, 1, 1, 1, 0, 1, 1, 1, 1, 1, 0, 1, 1, 1, 1, 1, 0
| 1, 1, 1, 1, 1, 1, 1, 1, 1, 1, 1, 1, 1, 1, 1, 1, 1, 0, 0, 0, 0, 0, 0, 1, 1, 1, 1, 1, 1, 1, 1, 1, 1, 1, 1
| 0, 1, 1, 1, 1, 1, 0, 1, 1, 1, 1, 1, 0, 1, 1, 1, 1, 0, 0, 0, 0, 0, 0, 1, 0, 1, 1, 1, 1, 1, 0, 1, 1, 1, 1
| 1, 0, 1, 1, 1, 1, 1, 0, 1, 1, 1, 1, 1, 0, 1, 1, 1, 0, 0, 0, 0, 0, 0, 1, 1, 0, 1, 1, 1, 1, 1, 0, 1, 1, 1
| 1, 1, 0, 1, 1, 1, 1, 1, 0, 1, 1, 1, 1, 1, 0, 1, 1, 0, 0, 0, 0, 0, 0, 1, 1, 1, 0, 1, 1, 1, 1, 1, 0, 1, 1
| 1, 1, 1, 0, 1, 1, 1, 1, 1, 0, 1, 1, 1, 1, 1, 0, 1, 0, 0, 0, 0, 0, 0, 1, 1, 1, 1, 0, 1, 1, 1, 1, 1, 0, 1
| 1, 1, 1, 1, 0, 1, 1, 1, 1, 1, 0, 1, 1, 1, 1, 1, 0, 0, 0, 0, 0, 0, 0, 1, 1, 1, 1, 1, 0, 1, 1, 1, 1, 1, 0
| 1, 1, 1, 1, 1, 1, 1, 1, 1, 1, 1, 1, 1, 1, 1, 1, 1, 1, 1, 1, 1, 1, 1, 0, 0, 0, 0, 0, 0, 1, 1, 1, 1, 1, 1
| 0, 1, 1, 1, 1, 1, 0, 1, 1, 1, 1, 1, 0, 1, 1, 1, 1, 1, 0, 1, 1, 1, 1, 0, 0, 0, 0, 0, 0, 1, 0, 1, 1, 1, 1
| 1, 0, 1, 1, 1, 1, 1, 0, 1, 1, 1, 1, 1, 0, 1, 1, 1, 1, 1, 0, 1, 1, 1, 0, 0, 0, 0, 0, 0, 1, 1, 0, 1, 1, 1
| 1, 1, 0, 1, 1, 1, 1, 1, 0, 1, 1, 1, 1, 1, 0, 1, 1, 1, 1, 1, 0, 1, 1, 0, 0, 0, 0, 0, 0, 1, 1, 1, 0, 1, 1
| 1, 1, 1, 0, 1, 1, 1, 1, 1, 0, 1, 1, 1, 1, 1, 0, 1, 1, 1, 1, 1, 0, 1, 0, 0, 0, 0, 0, 0, 1, 1, 1, 1, 0, 1
| 1, 1, 1, 1, 0, 1, 1, 1, 1, 1, 0, 1, 1, 1, 1, 1, 0, 1, 1, 1, 1, 1, 0, 0, 0, 0, 0, 0, 0, 1, 1, 1, 1, 1, 0
| 1, 1, 1, 1, 1, 1, 1, 1, 1, 1, 1, 1, 1, 1, 1, 1, 1, 1, 1, 1, 1, 1, 1, 1, 1, 1, 1, 1, 1, 0, 0, 0, 0, 0, 0
| 0, 1, 1, 1, 1, 1, 0, 1, 1, 1, 1, 1, 0, 1, 1, 1, 1, 1, 0, 1, 1, 1, 1, 1, 0, 1, 1, 1, 1, 0, 0, 0, 0, 0, 0
| 1, 0, 1, 1, 1, 1, 1, 0, 1, 1, 1, 1, 1, 0, 1, 1, 1, 1, 1, 0, 1, 1, 1, 1, 1, 0, 1, 1, 1, 0, 0, 0, 0, 0, 0
| 1, 1, 0, 1, 1, 1, 1, 1, 0, 1, 1, 1, 1, 1, 0, 1, 1, 1, 1, 1, 0, 1, 1, 1, 1, 1, 0, 1, 1, 0, 0, 0, 0, 0, 0
| 1, 1, 1, 0, 1, 1, 1, 1, 1, 0, 1, 1, 1, 1, 1, 0, 1, 1, 1, 1, 1, 0, 1, 1, 1, 1, 1, 0, 1, 0, 0, 0, 0, 0, 0
| 1, 1, 1, 1, 0, 1, 1, 1, 1, 1, 0, 1, 1, 1, 1, 1, 0, 1, 1, 1, 1, 1, 0, 1, 1, 1, 1, 1, 0, 0, 0, 0, 0, 0, 0 |];
